c This is QMaxSAT 2017 based on 14.07
c This is Glucose 3.0
c This is MiniSat 2.2.0
c WARNING: for repeatability, setting FPU to use double precision
c card = mrwto, comp = 0, pmodel = 0, narr = 6, mct = 42, verb = 0
cr firstCPXsol 0 0 0
c top = 127531
c |  Number of variables:    77824                                            |
c |  Number of clauses:      56313348                                         |
c |  Weight of hard clauses: 127531                                           |
c |  Number of soft clauses: 10332                                            |
c |  Number of unit soft clauses: 10332                                       |
c |  Maximum Cardinality (by unit): 765180       (765180      )               |
c last restart ## conflicts  :  4 25988 
o 1384 | cpuTime 5.02769 s
c Sum of weights = 127530
c A number of soft clauses remained = 1722
c MRWTO encoding for Pseudo-Boolean Constraints
c sizeMax=1384
c No.0 Divisor=12	generated by pow1
c No.1 Divisor=12	generated by pow1
c No.2 Divisor=12	generated by pow1
c p0= 12	p1= 12	p2= 12	
c number of digits = 4
c linkingVar[0].size = 12, linkingVar[1].size = 12, linkingVar[2].size = 10, linkingVar[3].size = 1, 
c Pseudo-Boolean Constraints: 35557 variables and 333920 clauses
c Sum of weights = 127530
c A number of soft clauses remained = 1722
c MRWTO encoding for Pseudo-Boolean Constraints
c sizeMax=1384
c No.0 Divisor=12	generated by pow1
c No.1 Divisor=12	generated by pow1
c No.2 Divisor=12	generated by pow1
c p0= 12	p1= 12	p2= 12	
c number of digits = 4
c linkingVar[0].size = 12, linkingVar[1].size = 12, linkingVar[2].size = 10, linkingVar[3].size = 1, 
c Pseudo-Boolean Constraints: 35557 variables and 333920 clauses
c Sum of weights = 127530
c A number of soft clauses remained = 1722
c MRWTO encoding for Pseudo-Boolean Constraints
c sizeMax=1384
c No.0 Divisor=12	generated by pow1
c No.1 Divisor=12	generated by pow1
c No.2 Divisor=12	generated by pow1
c p0= 12	p1= 12	p2= 12	
c number of digits = 4
c linkingVar[0].size = 12, linkingVar[1].size = 12, linkingVar[2].size = 10, linkingVar[3].size = 1, 
c Pseudo-Boolean Constraints: 35557 variables and 333920 clauses
c Sum of weights = 127530
c A number of soft clauses remained = 1722
c MRWTO encoding for Pseudo-Boolean Constraints
c sizeMax=1384
c No.0 Divisor=12	generated by pow1
c No.1 Divisor=12	generated by pow1
c No.2 Divisor=12	generated by pow1
c p0= 12	p1= 12	p2= 12	
c number of digits = 4
c linkingVar[0].size = 12, linkingVar[1].size = 12, linkingVar[2].size = 10, linkingVar[3].size = 1, 
c Pseudo-Boolean Constraints: 35557 variables and 333920 clauses
c Sum of weights = 127530
c A number of soft clauses remained = 1722
c MRWTO encoding for Pseudo-Boolean Constraints
c sizeMax=1384
c No.0 Divisor=12	generated by pow1
c No.1 Divisor=12	generated by pow1
c No.2 Divisor=12	generated by pow1
c p0= 12	p1= 12	p2= 12	
c number of digits = 4
c linkingVar[0].size = 12, linkingVar[1].size = 12, linkingVar[2].size = 10, linkingVar[3].size = 1, 
c Pseudo-Boolean Constraints: 35557 variables and 333920 clauses
c Sum of weights = 127530
c A number of soft clauses remained = 1722
c MRWTO encoding for Pseudo-Boolean Constraints
c sizeMax=1384
c No.0 Divisor=12	generated by pow1
c No.1 Divisor=12	generated by pow1
c No.2 Divisor=12	generated by pow1
c p0= 12	p1= 12	p2= 12	
c number of digits = 4
c linkingVar[0].size = 12, linkingVar[1].size = 12, linkingVar[2].size = 10, linkingVar[3].size = 1, 
c Pseudo-Boolean Constraints: 35557 variables and 333920 clauses
c last restart ## conflicts  :  191 37149 
o 1155 | cpuTime 29.7091 s
c last restart ## conflicts  :  162 40370 
o 948 | cpuTime 60.1714 s
c last restart ## conflicts  :  239 48959 
o 742 | cpuTime 74.923 s
c last restart ## conflicts  :  689 27353 
o 575 | cpuTime 101.926 s
c last restart ## conflicts  :  951 34850 
o 506 | cpuTime 154.163 s
c last restart ## conflicts  :  977 24264 
o 479 | cpuTime 2321.6 s
s UNKNOWN
c Search is stopped by a limit (maybe time-limit)
cr positiVarArr: [ | 4@1(1->4) | 126@1(3->42) | 131@1(4->5) | 203@1(5->35) | 213@1(6->3) | 419@1(10->41) | 1312@1(32->10) | 1460@1(35->32) | 1555@1(38->1) | 1686@1(41->6) | 1760@1(42->38) | 1771@2(1->7) | 2055@2(7->39) | 2185@2(11->1) | 2321@2(14->11) | 3374@2(39->14) | 3564@3(1->36) | 3865@3(9->1) | 4734@3(29->30) | 4755@3(30->9) | 5027@3(36->29) | 5312@4(1->20) | 6127@4(20->37) | 6637@4(33->1) | 6711@4(34->33) | 6838@4(37->34) | 7058@5(1->2) | 7120@5(2->22) | 7351@5(8->1) | 7749@5(17->21) | 7789@5(18->19) | 7829@5(19->17) | 7924@5(21->28) | 7961@5(22->23) | 7998@5(23->18) | 8072@5(25->8) | 8131@5(26->25) | 8174@5(27->26) | 8217@5(28->27) | 8851@6(1->31) | 9295@6(12->13) | 9339@6(13->15) | 9424@6(15->16) | 9490@6(16->40) | 9798@6(24->12) | 10104@6(31->24) | 10459@6(40->1) | ]
cr the 1-th chain: [ 1->4->5->35->32->10->41->6->3->42->38->1 ] (#non-depot=10) {#cumul.=11}
cr the 2-th chain: [ 1->7->39->14->11->1 ] (#non-depot=4) {#cumul.=15}
cr the 3-th chain: [ 1->36->29->30->9->1 ] (#non-depot=4) {#cumul.=19}
cr the 4-th chain: [ 1->20->37->34->33->1 ] (#non-depot=4) {#cumul.=23}
cr the 5-th chain: [ 1->2->22->23->18->19->17->21->28->27->26->25->8->1 ] (#non-depot=12) {#cumul.=35}
cr the 6-th chain: [ 1->31->24->12->13->15->16->40->1 ] (#non-depot=7) {#cumul.=42}
c Latest Answer = 0 by 7 loops
c restarts              : 66381
c conflicts             : 9923989        (2771 /sec)
c decisions             : 337347848      (0.00 % random) (94210 /sec)
c propagations          : 21872526831    (6108239 /sec)
c conflict literals     : 3941787307     (14.28 % deleted)
c Memory used           : 5465.00 MB
c CPU time              : 3580.82 s
